
Gurobi 8.1.0 (linux64, Python) logging started Wed Feb  6 11:55:50 2019

Academic license - for non-commercial use only
Optimize a model with 7 rows, 11 columns and 26 nonzeros
Coefficient statistics:
  Matrix range     [5e-02, 1e+00]
  Objective range  [2e-01, 6e-01]
  Bounds range     [0e+00, 0e+00]
  RHS range        [1e+00, 1e+00]
Presolve removed 7 rows and 11 columns
Presolve time: 0.00s
Presolve: All rows and columns removed
Iteration    Objective       Primal Inf.    Dual Inf.      Time
       0    2.5605681e-01   0.000000e+00   0.000000e+00      0s

Solved in 0 iterations and 0.00 seconds
Optimal objective  2.560568087e-01

Gurobi 8.1.0 (linux64, Python) logging started Wed Feb  6 11:58:38 2019

Academic license - for non-commercial use only
Optimize a model with 7 rows, 11 columns and 26 nonzeros
Coefficient statistics:
  Matrix range     [5e-02, 1e+00]
  Objective range  [4e-02, 2e-01]
  Bounds range     [0e+00, 0e+00]
  RHS range        [1e+00, 1e+00]
Presolve removed 7 rows and 11 columns
Presolve time: 0.00s
Presolve: All rows and columns removed
Iteration    Objective       Primal Inf.    Dual Inf.      Time
       0    6.5580618e-02   0.000000e+00   0.000000e+00      0s

Solved in 0 iterations and 0.00 seconds
Optimal objective  6.558061821e-02

Gurobi 8.1.0 (linux64, Python) logging started Wed Feb  6 11:59:58 2019

Academic license - for non-commercial use only
Optimize a model with 7 rows, 11 columns and 26 nonzeros
Coefficient statistics:
  Matrix range     [5e-02, 1e+00]
  Objective range  [4e-02, 2e-01]
  Bounds range     [0e+00, 0e+00]
  RHS range        [1e+00, 1e+00]
Presolve removed 7 rows and 11 columns
Presolve time: 0.00s
Presolve: All rows and columns removed
Iteration    Objective       Primal Inf.    Dual Inf.      Time
       0    1.3406085e-01   0.000000e+00   0.000000e+00      0s

Solved in 0 iterations and 0.00 seconds
Optimal objective  1.340608466e-01

Gurobi 8.1.0 (linux64, Python) logging started Wed Feb  6 12:00:43 2019

Academic license - for non-commercial use only
Optimize a model with 7 rows, 11 columns and 26 nonzeros
Coefficient statistics:
  Matrix range     [5e-02, 1e+00]
  Objective range  [2e-01, 6e-01]
  Bounds range     [0e+00, 0e+00]
  RHS range        [1e+00, 1e+00]
Presolve removed 7 rows and 11 columns
Presolve time: 0.00s
Presolve: All rows and columns removed
Iteration    Objective       Primal Inf.    Dual Inf.      Time
       0    4.7876984e-01   0.000000e+00   0.000000e+00      0s

Solved in 0 iterations and 0.00 seconds
Optimal objective  4.787698413e-01

Gurobi 8.1.0 (linux64, Python) logging started Wed Feb  6 12:01:02 2019

Academic license - for non-commercial use only
Optimize a model with 7 rows, 11 columns and 26 nonzeros
Coefficient statistics:
  Matrix range     [5e-02, 1e+00]
  Objective range  [7e-01, 9e-01]
  Bounds range     [0e+00, 0e+00]
  RHS range        [1e+00, 1e+00]
Presolve removed 7 rows and 11 columns
Presolve time: 0.00s
Presolve: All rows and columns removed
Iteration    Objective       Primal Inf.    Dual Inf.      Time
       0    9.3333333e-01   0.000000e+00   0.000000e+00      0s

Solved in 0 iterations and 0.00 seconds
Optimal objective  9.333333333e-01

Gurobi 8.1.0 (linux64, Python) logging started Wed Feb  6 12:02:40 2019

Academic license - for non-commercial use only
Optimize a model with 7 rows, 11 columns and 26 nonzeros
Coefficient statistics:
  Matrix range     [5e-02, 1e+00]
  Objective range  [2e-01, 6e-01]
  Bounds range     [0e+00, 0e+00]
  RHS range        [1e+00, 1e+00]
Presolve removed 7 rows and 11 columns
Presolve time: 0.00s
Presolve: All rows and columns removed
Iteration    Objective       Primal Inf.    Dual Inf.      Time
       0    4.7876984e-01   0.000000e+00   0.000000e+00      0s

Solved in 0 iterations and 0.00 seconds
Optimal objective  4.787698413e-01

Gurobi 8.1.0 (linux64, Python) logging started Wed Feb  6 12:02:52 2019

Academic license - for non-commercial use only
Optimize a model with 7 rows, 11 columns and 26 nonzeros
Coefficient statistics:
  Matrix range     [5e-02, 1e+00]
  Objective range  [4e-02, 2e-01]
  Bounds range     [0e+00, 0e+00]
  RHS range        [1e+00, 1e+00]
Presolve removed 7 rows and 11 columns
Presolve time: 0.00s
Presolve: All rows and columns removed
Iteration    Objective       Primal Inf.    Dual Inf.      Time
       0    1.3406085e-01   0.000000e+00   0.000000e+00      0s

Solved in 0 iterations and 0.00 seconds
Optimal objective  1.340608466e-01

Gurobi 8.1.0 (linux64, Python) logging started Wed Feb  6 12:03:19 2019

Academic license - for non-commercial use only
Optimize a model with 7 rows, 10 columns and 24 nonzeros
Coefficient statistics:
  Matrix range     [5e-02, 1e+00]
  Objective range  [2e-01, 6e-01]
  Bounds range     [0e+00, 0e+00]
  RHS range        [1e+00, 1e+00]
Presolve removed 7 rows and 10 columns
Presolve time: 0.00s
Presolve: All rows and columns removed
Iteration    Objective       Primal Inf.    Dual Inf.      Time
       0    3.4653300e-01   0.000000e+00   0.000000e+00      0s

Solved in 0 iterations and 0.00 seconds
Optimal objective  3.465329992e-01

Gurobi 8.1.0 (linux64, Python) logging started Wed Feb  6 12:07:15 2019

Academic license - for non-commercial use only
Optimize a model with 7 rows, 10 columns and 24 nonzeros
Coefficient statistics:
  Matrix range     [5e-02, 1e+00]
  Objective range  [3e+00, 6e+00]
  Bounds range     [0e+00, 0e+00]
  RHS range        [1e+00, 1e+00]
Presolve removed 7 rows and 10 columns
Presolve time: 0.00s
Presolve: All rows and columns removed
Iteration    Objective       Primal Inf.    Dual Inf.      Time
       0    4.2246658e+00   0.000000e+00   0.000000e+00      0s

Solved in 0 iterations and 0.00 seconds
Optimal objective  4.224665826e+00

Gurobi 8.1.0 (linux64, Python) logging started Wed Feb  6 12:07:33 2019

Academic license - for non-commercial use only
Optimize a model with 7 rows, 11 columns and 26 nonzeros
Coefficient statistics:
  Matrix range     [5e-02, 1e+00]
  Objective range  [3e+00, 6e+00]
  Bounds range     [0e+00, 0e+00]
  RHS range        [1e+00, 1e+00]
Presolve removed 7 rows and 11 columns
Presolve time: 0.00s
Presolve: All rows and columns removed
Iteration    Objective       Primal Inf.    Dual Inf.      Time
       0    3.6232143e+00   0.000000e+00   0.000000e+00      0s

Solved in 0 iterations and 0.00 seconds
Optimal objective  3.623214286e+00

Gurobi 8.1.0 (linux64, Python) logging started Wed Feb  6 12:09:00 2019

Academic license - for non-commercial use only
Optimize a model with 7 rows, 11 columns and 26 nonzeros
Coefficient statistics:
  Matrix range     [5e-02, 1e+00]
  Objective range  [3e+00, 6e+00]
  Bounds range     [0e+00, 0e+00]
  RHS range        [1e+00, 1e+00]
Presolve removed 7 rows and 11 columns
Presolve time: 0.00s
Presolve: All rows and columns removed
Iteration    Objective       Primal Inf.    Dual Inf.      Time
       0    3.9310256e+00   0.000000e+00   0.000000e+00      0s

Solved in 0 iterations and 0.00 seconds
Optimal objective  3.931025637e+00

Gurobi 8.1.0 (linux64, Python) logging started Wed Feb  6 12:09:25 2019

Academic license - for non-commercial use only
Optimize a model with 7 rows, 11 columns and 26 nonzeros
Coefficient statistics:
  Matrix range     [5e-02, 1e+00]
  Objective range  [1e-01, 5e-01]
  Bounds range     [0e+00, 0e+00]
  RHS range        [1e+00, 1e+00]
Presolve removed 7 rows and 11 columns
Presolve time: 0.00s
Presolve: All rows and columns removed
Iteration    Objective       Primal Inf.    Dual Inf.      Time
       0    3.7038462e-01   0.000000e+00   0.000000e+00      0s

Solved in 0 iterations and 0.00 seconds
Optimal objective  3.703846154e-01
